(declare-datatypes ((Lst 0)) (((cons (param136 Int) (param137 Lst))(nil))))
(declare-datatypes ((Queue 0)) (((queue  (param138 Lst) (param139 Lst)))))
(declare-fun append (Lst Lst ) Lst)
(declare-fun len (Lst ) Int)
(assert (forall ((|_FH_2'| Lst)) (= (append nil |_FH_2'|) |_FH_2'|)))
(assert (forall ((x Int) (_FH_0 Lst) (_FH_2 Lst)) (= (append (cons x _FH_0) (cons x _FH_2)) (append _FH_0 _FH_2))))
(assert (= (len 0) nil))
(assert (forall ((_FH_4 Int) (x Int)) (=> true (= (len (+ _FH_4 1)) (cons x (len _FH_4))))))
(assert (not (= (len 0) nil)))
(check-sat)